c A SAT instance generated from a 3-CNF formula that had 12 clauses and 6 variables
p cnf 6 12
-6 -1 -4 0
1 4 -6 0
3 1 2 0
-4 3 -1 0
1 3 -6 0
-3 1 6 0
-5 -1 3 0
-6 4 -5 0
-5 -6 -3 0
4 6 -5 0
4 3 2 0
4 -5 -6 0
